WARNING: for repeatability, setting FPU to use double precision
============================[ Problem Statistics ]=============================
|                                                                             |
|  Number of variables:         14399                                         |
|  Number of clauses:          142522                                         |
|  Parse time:                   0.05 s                                       |
|  Eliminated clauses:           0.01 Mb                                      |
|  Simplification time:          0.07 s                                       |
|                                                                             |
============================[ Search Statistics ]==============================
| Conflicts |          ORIGINAL         |          LEARNT          | Progress |
|           |    Vars  Clauses Literals |    Limit  Clauses Lit/Cl |          |
===============================================================================
|       100 |    1712    17037    45992 |     6246      100     20 | 82.228 % |
|       250 |    1712    17037    45992 |     6871      250     21 | 82.228 % |
|       475 |    1712    17037    45992 |     7558      475     24 | 82.228 % |
|       812 |    1712    17037    45992 |     8314      812     26 | 82.228 % |
===============================================================================
restarts              : 7
conflicts             : 1005           (7366 /sec)
decisions             : 5268           (0.00 % random) (38611 /sec)
propagations          : 55643          (407823 /sec)
conflict literals     : 35332          (3.98 % deleted)
Memory used           : 30.00 MB
CPU time              : 0.136439 s

SATISFIABLE
WARNING: for repeatability, setting FPU to use double precision
============================[ Problem Statistics ]=============================
|                                                                             |
|  Number of variables:         14399                                         |
|  Number of clauses:          142522                                         |
|  Parse time:                   0.04 s                                       |
|  Eliminated clauses:           0.01 Mb                                      |
|  Simplification time:          0.05 s                                       |
|                                                                             |
============================[ Search Statistics ]==============================
| Conflicts |          ORIGINAL         |          LEARNT          | Progress |
|           |    Vars  Clauses Literals |    Limit  Clauses Lit/Cl |          |
===============================================================================
|       100 |    1712    17037    45992 |     6246      100     20 | 82.228 % |
|       250 |    1712    17037    45992 |     6871      250     21 | 82.228 % |
|       475 |    1712    17037    45992 |     7558      475     24 | 82.228 % |
|       812 |    1712    17037    45992 |     8314      812     26 | 82.228 % |
===============================================================================
restarts              : 7
conflicts             : 1005           (10036 /sec)
decisions             : 5268           (0.00 % random) (52604 /sec)
propagations          : 55643          (555630 /sec)
conflict literals     : 35332          (3.98 % deleted)
Memory used           : 30.00 MB
CPU time              : 0.100144 s

SATISFIABLE
